NAME : sim51.71881.tour
COMMENT : Length = 71881
COMMENT : Found by LKH [Keld Helsgaun] Tue Sep 11 17:51:16 2018
TYPE : TOUR
DIMENSION : 51
TOUR_SECTION
1
3
16
26
42
9
7
22
19
5
17
11
35
15
38
27
34
39
43
23
44
49
28
32
41
24
13
50
8
12
33
47
45
51
48
30
4
2
21
46
31
29
14
36
20
37
6
18
25
40
10
-1
EOF
